&CONTROL
    calculation = 'relax'
    pseudo_dir = '/home/bond/Software/qe-7.1/pseudo'
    outdir = '/home/bond/Work/final-project/final/bi/cubic/lattice/Bi_bcc_alat_3.16_ecut_70_nk_5'
    tstress = .true.
    tprnfor = .true.
    disk_io = 'none'
/ 
&SYSTEM
    ecutwfc = 70
    ecutrho = 560
    occupations = 'smearing'
    smearing = 'mp'
    degauss = 0.02
    ntyp = 1
    nat = 1
    ibrav = 0
/ 
&ELECTRONS
    diagonalization = 'david'
    mixing_beta = 0.7
    conv_thr = 1e-07
/ 
&IONS
/ 
&CELL
/ 
K_POINTS {automatic}
 5 5 5  0 0 0
ATOMIC_SPECIES
  Bi 208.9804 Bi.pbe-dn-kjpaw_psl.1.0.0.UPF
CELL_PARAMETERS {angstrom}
 3.16 0.0 0.0
 0.0 3.16 0.0
 0.0 0.0 3.16
ATOMIC_POSITIONS {angstrom}
  Bi 1.58000 1.58000 1.58000
