&CONTROL
    calculation = 'relax'
    pseudo_dir = '/home/bond/Software/qe-7.1/pseudo'
    outdir = '/home/bond/Work/final-project/final/ba/cubic/lattice/Ba_bcc_alat_5.05_ecut_70_nk_5'
    tstress = .true.
    tprnfor = .true.
    disk_io = 'none'
/ 
&SYSTEM
    ecutwfc = 70
    ecutrho = 560
    occupations = 'smearing'
    smearing = 'mp'
    degauss = 0.02
    ntyp = 1
    nat = 1
    ibrav = 0
/ 
&ELECTRONS
    diagonalization = 'david'
    mixing_beta = 0.7
    conv_thr = 1e-07
/ 
&IONS
/ 
&CELL
/ 
K_POINTS {automatic}
 5 5 5  0 0 0
ATOMIC_SPECIES
  Ba 137.327 Ba.pbe-spn-kjpaw_psl.1.0.0.UPF
CELL_PARAMETERS {angstrom}
 -2.525 2.525 2.525
 2.525 -2.525 2.525
 2.525 2.525 -2.525
ATOMIC_POSITIONS {angstrom}
  Ba 0.00000 0.00000 0.00000
