&CONTROL
    calculation = 'relax'
    pseudo_dir = '/home/bond/Software/qe-7.1/pseudo'
    outdir = '/home/bond/Work/final-project/final/mgo/rocksalt/lattice/Mg_hcp_alat_4.19_ecut_70_nk_5'
    tstress = .true.
    tprnfor = .true.
    disk_io = 'none'
/ 
&SYSTEM
    ecutwfc = 70
    ecutrho = 560
    occupations = 'smearing'
    smearing = 'mp'
    degauss = 0.02
    ntyp = 2
    nat = 2
    ibrav = 0
/ 
&ELECTRONS
    diagonalization = 'david'
    mixing_beta = 0.7
    conv_thr = 1e-07
/ 
&IONS
/ 
&CELL
/ 
K_POINTS {automatic}
 5 5 5  0 0 0
ATOMIC_SPECIES
  Mg 24.305 Mg.pbe-spnl-kjpaw_psl.1.0.0.UPF
  O 15.999 O.pbe-n-kjpaw_psl.1.0.0.UPF
CELL_PARAMETERS {angstrom}
 0.0 2.095 2.095
 2.095 0.0 2.095
 2.095 2.095 0.0
ATOMIC_POSITIONS {angstrom}
  Mg 0.00000 0.00000 0.00000
  O 2.09500 0.00000 0.00000
